80482.0
1873
0 3 4 5 6 7 8 9 10 11 12 14 16 18 19 20 21 22 24 25 26 27 29 31 32 33 34 36 39 40 42 44 45 46 48 50 51 52 53 54 56 57 59 60 61 64 65 66 67 68 69 70 71 76 80 81 82 83 84 86 88 91 93 95 96 97 98 